p cnf 83 134                
2 32 0
1 32 0
-2 -1 -32 0
32 -38 0
-1 33 0
-2 33 0
1 2 -33 0
33 34 0
3 34 0
-33 -3 -34 0
34 -38 0
-3 35 0
-33 35 0
3 33 -35 0
35 36 0
4 36 0
-35 -4 -36 0
36 -38 0
-4 37 0
-35 37 0
4 35 -37 0
37 -38 0
-32 -34 -36 -37 38 0
-38 1 -39 0
38 9 -39 0
1 9 -39 0
39 43 0
-1 43 0
-38 2 -40 0
38 10 -40 0
2 10 -40 0
40 44 0
-2 44 0
-38 3 -41 0
38 11 -41 0
3 11 -41 0
41 45 0
-3 45 0
-38 4 -42 0
38 12 -42 0
4 12 -42 0
42 46 0
-4 46 0
-43 -44 -45 -46 47 0
-47 -48 0
-6 -5 -13 0
13 -19 0
-5 14 0
-6 14 0
5 6 -14 0
-14 -7 -15 0
15 -19 0
-7 16 0
-14 16 0
7 14 -16 0
-16 -8 -17 0
17 -19 0
8 16 -18 0
18 -19 0
19 -48 0
-10 -9 -20 0
20 -26 0
-9 21 0
-10 21 0
9 10 -21 0
-21 -11 -22 0
22 -26 0
-11 23 0
-21 23 0
11 21 -23 0
-23 -12 -24 0
24 -26 0
12 23 -25 0
25 -26 0
26 -48 0
-5 1 -27 0
27 -31 0
-6 2 -28 0
28 -31 0
-7 3 -29 0
29 -31 0
-8 4 -30 0
30 -31 0
31 -48 0
-1 2 -49 0
49 -59 0
-1 -2 50 0
1 2 50 0
-2 2 50 0
-5 6 -51 0
-50 51 -52 0
52 -59 0
-5 -6 53 0
5 6 53 0
-6 6 53 0
-50 -53 54 0
-9 10 -55 0
-54 55 -56 0
56 -59 0
59 -82 0
-2 3 -60 0
60 -70 0
-2 -3 61 0
2 3 61 0
-3 3 61 0
-6 7 -62 0
-61 62 -63 0
63 -70 0
-6 -7 64 0
6 7 64 0
-7 7 64 0
-61 -64 65 0
-10 11 -66 0
-65 66 -67 0
67 -70 0
70 -82 0
-3 4 -71 0
71 -81 0
-3 -4 72 0
3 4 72 0
-4 4 72 0
-7 8 -73 0
-72 73 -74 0
74 -81 0
-7 -8 75 0
7 8 75 0
-8 8 75 0
-72 -75 76 0
-11 12 -77 0
-76 77 -78 0
78 -81 0
81 -82 0
48 0
82 0
